(set-logic QF_S)
(declare-const x String)
(declare-const y String)
(assert (str.in.re x (re.+ (re.++ (str.to.re "t") (re.* (str.to.re ""))))))
(assert (= (str.len x) 2))
(assert (not (= x "tt")))
(assert (not (= x "tCV")))
(check-sat)
